
Gurobi 6.5.2 (linux64) logging started Tue Sep  6 10:06:19 2016

Optimize a model with 101 rows, 418 columns and 865 nonzeros
Coefficient statistics:
  Matrix range    [1e+00, 2e+00]
  Objective range [1e+00, 1e+02]
  Bounds range    [1e+00, 1e+00]
  RHS range       [1e+00, 1e+00]
Presolve removed 40 rows and 27 columns
Presolve time: 0.00s
Presolved: 61 rows, 391 columns, 787 nonzeros
Variable types: 0 continuous, 391 integer (391 binary)

Root relaxation: objective 1.147500e+03, 68 iterations, 0.00 seconds

    Nodes    |    Current Node    |     Objective Bounds      |     Work
 Expl Unexpl |  Obj  Depth IntInf | Incumbent    BestBd   Gap | It/Node Time

     0     0 1147.50000    0    8          - 1147.50000      -     -    0s
     0     0 1155.50000    0   18          - 1155.50000      -     -    0s
     0     0 1156.50000    0   18          - 1156.50000      -     -    0s
     0     0 1159.00000    0    6          - 1159.00000      -     -    0s
     0     0 1161.00000    0   22          - 1161.00000      -     -    0s
     0     0 1161.00000    0    6          - 1161.00000      -     -    0s
     0     0 1172.50000    0   16          - 1172.50000      -     -    0s
     0     0 1173.87500    0   31          - 1173.87500      -     -    0s
     0     0 1173.87500    0   29          - 1173.87500      -     -    0s
H    0     0                    1206.0000000 1173.87500  2.66%     -    0s
     0     0 1173.87500    0   10 1206.00000 1173.87500  2.66%     -    0s
     0     0 1173.87500    0    8 1206.00000 1173.87500  2.66%     -    0s
     0     0 1173.87500    0   24 1206.00000 1173.87500  2.66%     -    0s
     0     0 1174.50000    0   26 1206.00000 1174.50000  2.61%     -    0s
H    0     0                    1179.0000000 1174.50000  0.38%     -    0s
     0     0 1174.66667    0   34 1179.00000 1174.66667  0.37%     -    0s
     0     0 1174.79167    0   38 1179.00000 1174.79167  0.36%     -    0s
     0     0 1174.79167    0    4 1179.00000 1174.79167  0.36%     -    0s
     0     0 1174.79167    0   19 1179.00000 1174.79167  0.36%     -    0s
     0     0 1175.03333    0   24 1179.00000 1175.03333  0.34%     -    0s
     0     0 1175.11111    0   25 1179.00000 1175.11111  0.33%     -    0s
     0     0 1175.12500    0   23 1179.00000 1175.12500  0.33%     -    0s
     0     0 1175.50000    0   21 1179.00000 1175.50000  0.30%     -    0s
     0     0 1175.50000    0   18 1179.00000 1175.50000  0.30%     -    0s
*    0     0               0    1176.0000000 1176.00000  0.00%     -    0s

Cutting planes:
  Gomory: 3
  Clique: 2
  MIR: 2
  Zero half: 4
  Lazy constraints: 3

Explored 0 nodes (313 simplex iterations) in 0.07 seconds
Thread count was 8 (of 8 available processors)

Optimal solution found (tolerance 1.00e-04)
Best objective 1.176000000000e+03, best bound 1.176000000000e+03, gap 0.0%
